h 28 18 0
11 1 -3 0
h 15 -25 0
h -4 3 0
h -28 -30 0
h 4 -29 0
1 -26 0
6 -34 0
1 -32 0
h 10 29 0
h -1 -21 0
20 -2 0
h 26 -27 0
h -10 25 11 0
h 6 -22 0
7 -11 0
h 30 14 0
h 7 8 0
1 16 7 0
13 -17 0
h -8 -1 15 0
10 -18 0
h -3 -7 0
h -1 10 0
h 10 27 0
h 3 -14 0
h -10 22 11 0
h 1 2 0
h 1 17 0
h -14 32 0
h 22 -15 0
h -25 -8 0
27 21 0
7 -6 0
h 14 -16 -15 0
